75403
29102
455767
458557
618105
942471
121385
652365
20197
910576
836788
558397
447698
377593
759935
29215
767129
317738
682907
182525
3511
400974
449219
626742
783721
848881
436730
265136
580451
332335
364170
765801
839963
557680
94226
175850
307922
982199
49053
883158
167281
696079
536943
50379
942913
680145
442209
717281
189851
439625
363414
249288
628004
489824
605150
925210
516983
283285
549914
942539
58240
795273
245508
375866
585232
321879
454760
710981
814192
905993
466125
575535
888491
979704
584817
465812
960143
187430
351770
598502
961383
451977
822609
561915
116541
579466
826355
244795
362608
384540
233485
610701
955246
826216
685983
120135
35938
50245
868948
523283
